NAME : 10_3_3_1_(22).dat
COMMENT : Henke, Speranza, Wäscher, 2015
TYPE : MCVRP
DIMENSION : 11
EDGE_WEIGHT_TYPE : DISTANCE_MATRIX
CAPACITY : 1000
VEHICLES : 2
PRODUCT TYPES : 3
COMPARTMENTS : 3
NODE_COORD_SECTION
1 50 50
2 91.62 80.3
3 65.43 4.66
4 33.17 16.61
5 89.89 88.34
6 2.47 81.07
7 19.21 2.05
8 85.47 42.91
9 28.39 53.41
10 82.32 25.8
11 54.78 26.4
DEMAND_SECTION
1 0 0 0
2 7 0 0
3 75 0 0
4 0 151 0
5 144 0 0
6 57 0 0
7 0 0 281
8 147 0 0
9 159 0 0
10 0 270 0
11 113 0 0
DEPOT_SECTION
1
EOF